sing20191215.12
TTAA 65121 48698
99008 24800 36005 00091 24015 06506 92771 21038 06508
85502 18227 16003 70144 09230 07510 50586 04529 12017
40759 14320 10506 30971 29328 08014 25098 39936 09517
20246 52948 08016 15425 68956 09020 10659 79957 10015
88103 80750 10017
77999=
TTCC 65127 48698
70862 81957 31025
88999
77999=
TTDD 6512/ 48698
11926 75363 22780 81758 33682 82157
21212 11982 08510 22956 33002 33940 24010 44895 22524
55846 22524 66787 25020 77758 28024 88715 30026 99682
31524=
